Al
1.0
   20.19300000000000     0.00000000000000     0.00000000000000
    0.00000000000000    20.19300000000000     0.00000000000000
    0.00000000000000     0.00000000000000   103.00900000000000
Al
301
Selective Dynamics
Cartesian
   -0.68750031565917    -0.32072535479437    -0.18450566646714    T   T   T
   -8.08046217720343   -10.09644134733402    -2.02037634039662    T   T   T
   -8.08300005072826    -6.06404939966613    -2.02034007738269    T   T   T
   -8.07947031057571    -2.01997581721985    -2.01997008247892    T   T   T
   -8.07947057298494     2.02021707544312    -2.02003981005857    T   T   T
   -8.08300230609861     6.06422519686473    -2.02045317548803    T   T   T
   -4.03999149415034   -10.09644395450943    -2.02039479155733    T   T   T
   -4.05179347204248    -6.07223291371904    -2.01904087432117    T   T   T
   -4.06487149236843    -2.04786919572705    -2.00604399972504    T   T   T
   -4.06487274513442     2.04811154384206    -2.00611587825449    T   T   T
   -4.05179747872236     6.07240893914579    -2.01915346998734    T   T   T
    0.00012256769904   -10.09644458588231    -2.02052814922845    T   T   T
    0.00012260497749    -6.06072250735671    -2.01795394191149    T   T   T
    0.00012371776013    -2.14752893155994    -2.02727670252642    T   T   T
    0.00012372409052     2.14777340637479    -2.02736357713747    T   T   T
    0.00012260789955     6.06089415716741    -2.01806678609623    T   T   T
    4.04020894019870   -10.09644395961626    -2.02050988793473    T   T   T
    4.05201174512915    -6.07223507453277    -2.01915624853140    T   T   T
    4.06509085850455    -2.04787236466455    -2.00615919636546    T   T   T
    4.06509211395856     2.04811472277267    -2.00623110158905    T   T   T
    4.05201575413810     6.07241109481540    -2.01926887667286    T   T   T
    8.08059669567978   -10.09644134866080    -2.02044318077571    T   T   T
    8.08313302832302    -6.06405255796769    -2.02040642857081    T   T   T
    8.07959900725212    -2.01997607957220    -2.02003689431433    T   T   T
    8.07959926380213     2.02021733949534    -2.02010663395504    T   T   T
    8.08313527488783     6.06422835220596    -2.02051953711600    T   T   T
  -10.09644134733407    -8.08046217720339    -2.02037634039663    T   T   T
  -10.09644395450948    -4.03999149415032    -2.02039479155731    T   T   T
  -10.09644458588237     0.00012256769908    -2.02052814922845    T   T   T
  -10.09644395961632     4.04020894019873    -2.02050988793474    T   T   T
  -10.09644134866085     8.08059669567984    -2.02044318077571    T   T   T
   -6.06404939966616    -8.08300005072823    -2.02034007738269    T   T   T
   -6.07223291371907    -4.05179347204247    -2.01904087432115    T   T   T
   -6.06072250735674     0.00012260497754    -2.01795394191145    T   T   T
   -6.07223507453279     4.05201174512920    -2.01915624853138    T   T   T
   -6.06405255796772     8.08313302832306    -2.02040642857082    T   T   T
   -2.01997581721988    -8.07947031057566    -2.01997008247895    T   T   T
   -2.04786919572706    -4.06487149236841    -2.00604399972509    T   T   T
   -2.14752893155988     0.00012371776017    -2.02727670252636    T   T   T
   -2.04787236466459     4.06509085850459    -2.00615919636548    T   T   T
   -2.01997607957222     8.07959900725218    -2.02003689431432    T   T   T
    2.02021707544309    -8.07947057298487    -2.02003981005859    T   T   T
    2.04811154384202    -4.06487274513440    -2.00611587825449    T   T   T
    2.14777340637483     0.00012372409056    -2.02736357713748    T   T   T
    2.04811472277265     4.06509211395860    -2.00623110158906    T   T   T
    2.02021733949532     8.07959926380217    -2.02010663395505    T   T   T
    6.06422519686468    -8.08300230609858    -2.02045317548804    T   T   T
    6.07240893914576    -4.05179747872234    -2.01915346998734    T   T   T
    6.06089415716737     0.00012260789959    -2.01806678609623    T   T   T
    6.07241109481536     4.05201575413814    -2.01926887667284    T   T   T
    6.06422835220591     8.08313527488787    -2.02051953711601    T   T   T
  -10.09642745822204   -10.09642745822198    -4.04247336423443    T   T   T
  -10.09642793387946    -6.06023839005978    -4.04144641339907    T   T   T
  -10.09642960584965    -2.01949767105454    -4.03928677014770    T   T   T
  -10.09642961150396     2.01969150181684    -4.03935308370097    T   T   T
  -10.09642794665275     6.06044292177132    -4.04160099060324    T   T   T
   -6.06023839005979   -10.09642793387939    -4.04144641339904    T   T   T
   -6.06214328513483    -6.06214328513480    -4.04193036377040    T   T   T
   -6.06495531486559    -2.02472580490217    -4.03927492700651    T   T   T
   -6.06495600996052     2.02492001743140    -4.03934166666258    T   T   T
   -6.06214497488039     6.06234777683974    -4.04208468419888    T   T   T
   -2.01949767105459   -10.09642960584956    -4.03928677014767    T   T   T
   -2.02472580490221    -6.06495531486555    -4.03927492700648    T   T   T
   -2.02616201582685    -2.02616201582687    -4.02609494918150    T   T   T
   -2.02616498538153     2.02635816547919    -4.02616326268189    T   T   T
   -2.02472762749851     6.06515893962858    -4.03942965764094    T   T   T
    2.01969150181683   -10.09642961150393    -4.03935308370098    T   T   T
    2.02492001743140    -6.06495600996050    -4.03934166666257    T   T   T
    2.02635816547916    -2.02616498538150    -4.02616326268190    T   T   T
    2.02636113854071     2.02636113854073    -4.02623159157878    T   T   T
    2.02492184220892     6.06515963497337    -4.03949641815707    T   T   T
    6.06044292177129   -10.09642794665271    -4.04160099060325    T   T   T
    6.06234777683971    -6.06214497488036    -4.04208468419894    T   T   T
    6.06515893962859    -2.02472762749849    -4.03942965764095    T   T   T
    6.06515963497334     2.02492184220892    -4.03949641815705    T   T   T
    6.06234946696195     6.06234946696202    -4.04223905717449    T   T   T
   -8.07906845857510    -8.07906845857504    -4.04208152539736    T   T   T
   -8.08099738104607    -4.04142526450130    -4.04073347663935    T   T   T
   -8.07793752823467     0.00009201981842    -4.03860738611438    T   T   T
   -8.08099780927084     4.04164361217586    -4.04086958810347    T   T   T
   -8.07906937631961     8.07923655009314    -4.04218400661780    T   T   T
   -4.04142526450130    -8.08099738104603    -4.04073347663934    T   T   T
   -4.04398577438682    -4.04398577438685    -4.03904508323571    T   T   T
   -4.06575616189852     0.00009212573127    -4.05386470075955    T   T   T
   -4.04398733927776     4.04420519784067    -4.03918089491780    T   T   T
   -4.04142696564732     8.08116390820456    -4.04083583607444    T   T   T
    0.00009201981836    -8.07793752823461    -4.03860738611436    T   T   T
    0.00009212573119    -4.06575616189845    -4.05386470075950    T   T   T
    0.00009381292314     0.00009381292318    -3.96922344433387    T   T   T
    0.00009212412457     4.06597716860056    -4.05400501202266    T   T   T
    0.00009201457907     8.07810187024212    -4.03870966636636    T   T   T
    4.04164361217584    -8.08099780927078    -4.04086958810348    T   T   T
    4.04420519784064    -4.04398733927776    -4.03918089491784    T   T   T
    4.06597716860052     0.00009212412460    -4.05400501202263    T   T   T
    4.04420677749369     4.04420677749376    -4.03931676669553    T   T   T
    4.04164532955857     8.08116432532823    -4.04097197123764    T   T   T
    8.07923655009312    -8.07906937631956    -4.04218400661787    T   T   T
    8.08116390820453    -4.04142696564730    -4.04083583607448    T   T   T
    8.07810187024212     0.00009201457909    -4.03870966636637    T   T   T
    8.08116432532823     4.04164532955860    -4.04097197123762    T   T   T
    8.07923745391844     8.07923745391848    -4.04228649866343    T   T   T
   -8.07753840438684   -10.09641599878593    -6.06236805410036    T   T   T
   -8.07789235025919    -6.05854526489526    -6.06163610311711    T   T   T
   -8.07889231455586    -2.02007277590944    -6.06027352198611    T   T   T
   -8.07889263244185     2.02020665245476    -6.06031480917798    T   T   T
   -8.07789278981198     6.05882347809673    -6.06183150584515    T   T   T
   -4.03920730432976   -10.09641635387002    -6.06117768299774    T   T   T
   -4.03942302868797    -6.05893708345274    -6.06022493976550    T   T   T
   -4.03861974853085    -2.02088976621852    -6.05805569163119    T   T   T
   -4.03862126807432     2.02102490549749    -6.05809740799639    T   T   T
   -4.03942431768266     6.05921501939285    -6.06042026420827    T   T   T
    0.00005954390812   -10.09641778671780    -6.05928033953373    T   T   T
    0.00005936644907    -6.06424922590061    -6.06406341753368    T   T   T
    0.00006107925701    -2.01157349761361    -6.03685770857767    T   T   T
    0.00006107598078     2.01170990721471    -6.03689928122834    T   T   T
    0.00005935056791     6.06452724777094    -6.06425926848754    T   T   T
    4.03938959460720   -10.09641637039029    -6.06126934728060    T   T   T
    4.03960573679194    -6.05893821020499    -6.06031645540121    T   T   T
    4.03880280865386    -2.02089241438625    -6.05814830805378    T   T   T
    4.03880432950948     2.02102754282666    -6.05819003629950    T   T   T
    4.03960702797887     6.05921618647452    -6.06051183810324    T   T   T
    8.07774810913083   -10.09641605055226    -6.06253684951029    T   T   T
    8.07810169435701    -6.05854620519025    -6.06180464546032    T   T   T
    8.07910021965089    -2.02007414353690    -6.06044233362902    T   T   T
    8.07910053134177     2.02020800035159    -6.06048361234365    T   T   T
    8.07810210626326     6.05882449627884    -6.06200015340410    T   T   T
  -10.09641599878599    -8.07753840438680    -6.06236805410035    T   T   T
  -10.09641635387005    -4.03920730432974    -6.06117768299773    T   T   T
  -10.09641778671785     0.00005954390814    -6.05928033953370    T   T   T
  -10.09641637039030     4.03938959460725    -6.06126934728063    T   T   T
  -10.09641605055231     8.07774810913081    -6.06253684951031    T   T   T
   -6.05854526489530    -8.07789235025916    -6.06163610311710    T   T   T
   -6.05893708345279    -4.03942302868794    -6.06022493976552    T   T   T
   -6.06424922590061     0.00005936644911    -6.06406341753363    T   T   T
   -6.05893821020502     4.03960573679193    -6.06031645540122    T   T   T
   -6.05854620519024     8.07810169435703    -6.06180464546035    T   T   T
   -2.02007277590946    -8.07889231455584    -6.06027352198609    T   T   T
   -2.02088976621856    -4.03861974853081    -6.05805569163118    T   T   T
   -2.01157349761364     0.00006107925706    -6.03685770857769    T   T   T
   -2.02089241438626     4.03880280865392    -6.05814830805378    T   T   T
   -2.02007414353694     8.07910021965085    -6.06044233362904    T   T   T
    2.02020665245474    -8.07889263244182    -6.06031480917801    T   T   T
    2.02102490549749    -4.03862126807426    -6.05809740799640    T   T   T
    2.01170990721467     0.00006107598081    -6.03689928122832    T   T   T
    2.02102754282661     4.03880432950951    -6.05819003629950    T   T   T
    2.02020800035159     8.07910053134175    -6.06048361234364    T   T   T
    6.05882347809675    -8.07789278981190    -6.06183150584512    T   T   T
    6.05921501939285    -4.03942431768266    -6.06042026420825    T   T   T
    6.06452724777095     0.00005935056795    -6.06425926848754    T   T   T
    6.05921618647449     4.03960702797890    -6.06051183810326    T   T   T
    6.05882449627881     8.07810210626325    -6.06200015340408    T   T   T
  -10.09639225304847   -10.09639225304844    -8.07827900048591    T   T   T
  -10.09639229485419    -6.05739175244647    -8.07762204865554    T   T   T
  -10.09639254072410    -2.01937179418434    -8.07694541074679    T   T   T
  -10.09639253760439     2.01943835423666    -8.07695900449949    T   T   T
  -10.09639236356531     6.05757798535655    -8.07768329034975    T   T   T
   -6.05739175244646   -10.09639229485418    -8.07762204865555    T   T   T
   -6.05723640084217    -6.05723640084212    -8.07667358152420    T   T   T
   -6.05664864875414    -2.01886220317551    -8.07625473927751    T   T   T
   -6.05664940202978     2.01892935616100    -8.07626844522016    T   T   T
   -6.05723727300501     6.05742286811703    -8.07673484589249    T   T   T
   -2.01937179418436   -10.09639254072407    -8.07694541074681    T   T   T
   -2.01886220317548    -6.05664864875412    -8.07625473927751    T   T   T
   -2.01586848871146    -2.01586848871145    -8.06960117029306    T   T   T
   -2.01586831748251     2.01593682440607    -8.06961486640104    T   T   T
   -2.01886377801836     6.05683476252293    -8.07631633817824    T   T   T
    2.01943835423664   -10.09639253760435    -8.07695900449953    T   T   T
    2.01892935616096    -6.05664940202980    -8.07626844522015    T   T   T
    2.01593682440605    -2.01586831748252    -8.06961486640105    T   T   T
    2.01593664967178     2.01593664967183    -8.06962856311096    T   T   T
    2.01893089836149     6.05683550252295    -8.07633004860238    T   T   T
    6.05757798535656   -10.09639236356531    -8.07768329034980    T   T   T
    6.05742286811703    -6.05723727300502    -8.07673484589247    T   T   T
    6.05683476252295    -2.01886377801834    -8.07631633817827    T   T   T
    6.05683550252296     2.01893089836151    -8.07633004860237    T   T   T
    6.05742375896263     6.05742375896266    -8.07679616296029    T   T   T
   -8.07676451508615    -8.07676451508612    -8.07736121732868    T   T   T
   -8.07655567739455    -4.03814116034839    -8.07671507987578    T   T   T
   -8.07813194117842     0.00002823433269    -8.07730656697200    T   T   T
   -8.07655611432772     4.03824250185713    -8.07674685593391    T   T   T
   -8.07676451304511     8.07721919733722    -8.07776822221566    T   T   T
   -4.03814116034840    -8.07655567739457    -8.07671507987578    T   T   T
   -4.03731906506630    -4.03731906506628    -8.07602983104768    T   T   T
   -4.03373613708654     0.00002916503550    -8.07129676017999    T   T   T
   -4.03732046206473     4.03742075015470    -8.07606215593520    T   T   T
   -4.03814194579185     8.07700942740252    -8.07712196164232    T   T   T
    0.00002823433269    -8.07813194117839    -8.07730656697202    T   T   T
    0.00002916503546    -4.03373613708654    -8.07129676018000    T   T   T
    0.00002919890957     0.00002919890961    -8.06762020580404    T   T   T
    0.00002915552852     4.03383843807350    -8.07132857933062    T   T   T
    0.00002820597986     8.07858422366184    -8.07771369801999    T   T   T
    4.03824250185710    -8.07655611432768    -8.07674685593392    T   T   T
    4.03742075015468    -4.03732046206471    -8.07606215593520    T   T   T
    4.03383843807350     0.00002915552855    -8.07132857933061    T   T   T
    4.03742214446044     4.03742214446045    -8.07609448081865    T   T   T
    4.03824318553322     8.07700990409144    -8.07715374253626    T   T   T
    8.07721919733723    -8.07676451304509    -8.07776822221564    T   T   T
    8.07700942740251    -4.03814194579183    -8.07712196164235    T   T   T
    8.07858422366184     0.00002820597987    -8.07771369801998    T   T   T
    8.07700990409145     4.03824318553323    -8.07715374253626    T   T   T
    8.07721949600265     8.07721949600265    -8.07817608650033    T   T   T
   -8.07644658213000   -10.09555822770000   -10.09555822770000    F   F   F
   -8.07644658213000    -6.05733493660000   -10.09555822770000    F   F   F
   -8.07644658213000    -2.01911164553000   -10.09555822770000    F   F   F
   -8.07644658213000     2.01911164553000   -10.09555822770000    F   F   F
   -8.07644658213000     6.05733493660000   -10.09555822770000    F   F   F
   -4.03822329106000   -10.09555822770000   -10.09555822770000    F   F   F
   -4.03822329106000    -6.05733493660000   -10.09555822770000    F   F   F
   -4.03822329106000    -2.01911164553000   -10.09555822770000    F   F   F
   -4.03822329106000     2.01911164553000   -10.09555822770000    F   F   F
   -4.03822329106000     6.05733493660000   -10.09555822770000    F   F   F
    0.00000000000000   -10.09555822770000   -10.09555822770000    F   F   F
    0.00000000000000    -6.05733493660000   -10.09555822770000    F   F   F
    0.00000000000000    -2.01911164553000   -10.09555822770000    F   F   F
    0.00000000000000     2.01911164553000   -10.09555822770000    F   F   F
    0.00000000000000     6.05733493660000   -10.09555822770000    F   F   F
    4.03822329106000   -10.09555822770000   -10.09555822770000    F   F   F
    4.03822329106000    -6.05733493660000   -10.09555822770000    F   F   F
    4.03822329106000    -2.01911164553000   -10.09555822770000    F   F   F
    4.03822329106000     2.01911164553000   -10.09555822770000    F   F   F
    4.03822329106000     6.05733493660000   -10.09555822770000    F   F   F
    8.07644658213000   -10.09555822770000   -10.09555822770000    F   F   F
    8.07644658213000    -6.05733493660000   -10.09555822770000    F   F   F
    8.07644658213000    -2.01911164553000   -10.09555822770000    F   F   F
    8.07644658213000     2.01911164553000   -10.09555822770000    F   F   F
    8.07644658213000     6.05733493660000   -10.09555822770000    F   F   F
  -10.09555822770000    -8.07644658213000   -10.09555822770000    F   F   F
  -10.09555822770000    -4.03822329106000   -10.09555822770000    F   F   F
  -10.09555822770000     0.00000000000000   -10.09555822770000    F   F   F
  -10.09555822770000     4.03822329106000   -10.09555822770000    F   F   F
  -10.09555822770000     8.07644658213000   -10.09555822770000    F   F   F
   -6.05733493660000    -8.07644658213000   -10.09555822770000    F   F   F
   -6.05733493660000    -4.03822329106000   -10.09555822770000    F   F   F
   -6.05733493660000     0.00000000000000   -10.09555822770000    F   F   F
   -6.05733493660000     4.03822329106000   -10.09555822770000    F   F   F
   -6.05733493660000     8.07644658213000   -10.09555822770000    F   F   F
   -2.01911164553000    -8.07644658213000   -10.09555822770000    F   F   F
   -2.01911164553000    -4.03822329106000   -10.09555822770000    F   F   F
   -2.01911164553000     0.00000000000000   -10.09555822770000    F   F   F
   -2.01911164553000     4.03822329106000   -10.09555822770000    F   F   F
   -2.01911164553000     8.07644658213000   -10.09555822770000    F   F   F
    2.01911164553000    -8.07644658213000   -10.09555822770000    F   F   F
    2.01911164553000    -4.03822329106000   -10.09555822770000    F   F   F
    2.01911164553000     0.00000000000000   -10.09555822770000    F   F   F
    2.01911164553000     4.03822329106000   -10.09555822770000    F   F   F
    2.01911164553000     8.07644658213000   -10.09555822770000    F   F   F
    6.05733493660000    -8.07644658213000   -10.09555822770000    F   F   F
    6.05733493660000    -4.03822329106000   -10.09555822770000    F   F   F
    6.05733493660000     0.00000000000000   -10.09555822770000    F   F   F
    6.05733493660000     4.03822329106000   -10.09555822770000    F   F   F
    6.05733493660000     8.07644658213000   -10.09555822770000    F   F   F
  -10.09555822770000   -10.09555822770000   -12.11466987320000    F   F   F
  -10.09555822770000    -6.05733493660000   -12.11466987320000    F   F   F
  -10.09555822770000    -2.01911164553000   -12.11466987320000    F   F   F
  -10.09555822770000     2.01911164553000   -12.11466987320000    F   F   F
  -10.09555822770000     6.05733493660000   -12.11466987320000    F   F   F
   -6.05733493660000   -10.09555822770000   -12.11466987320000    F   F   F
   -6.05733493660000    -6.05733493660000   -12.11466987320000    F   F   F
   -6.05733493660000    -2.01911164553000   -12.11466987320000    F   F   F
   -6.05733493660000     2.01911164553000   -12.11466987320000    F   F   F
   -6.05733493660000     6.05733493660000   -12.11466987320000    F   F   F
   -2.01911164553000   -10.09555822770000   -12.11466987320000    F   F   F
   -2.01911164553000    -6.05733493660000   -12.11466987320000    F   F   F
   -2.01911164553000    -2.01911164553000   -12.11466987320000    F   F   F
   -2.01911164553000     2.01911164553000   -12.11466987320000    F   F   F
   -2.01911164553000     6.05733493660000   -12.11466987320000    F   F   F
    2.01911164553000   -10.09555822770000   -12.11466987320000    F   F   F
    2.01911164553000    -6.05733493660000   -12.11466987320000    F   F   F
    2.01911164553000    -2.01911164553000   -12.11466987320000    F   F   F
    2.01911164553000     2.01911164553000   -12.11466987320000    F   F   F
    2.01911164553000     6.05733493660000   -12.11466987320000    F   F   F
    6.05733493660000   -10.09555822770000   -12.11466987320000    F   F   F
    6.05733493660000    -6.05733493660000   -12.11466987320000    F   F   F
    6.05733493660000    -2.01911164553000   -12.11466987320000    F   F   F
    6.05733493660000     2.01911164553000   -12.11466987320000    F   F   F
    6.05733493660000     6.05733493660000   -12.11466987320000    F   F   F
   -8.07644658213000    -8.07644658213000   -12.11466987320000    F   F   F
   -8.07644658213000    -4.03822329106000   -12.11466987320000    F   F   F
   -8.07644658213000     0.00000000000000   -12.11466987320000    F   F   F
   -8.07644658213000     4.03822329106000   -12.11466987320000    F   F   F
   -8.07644658213000     8.07644658213000   -12.11466987320000    F   F   F
   -4.03822329106000    -8.07644658213000   -12.11466987320000    F   F   F
   -4.03822329106000    -4.03822329106000   -12.11466987320000    F   F   F
   -4.03822329106000     0.00000000000000   -12.11466987320000    F   F   F
   -4.03822329106000     4.03822329106000   -12.11466987320000    F   F   F
   -4.03822329106000     8.07644658213000   -12.11466987320000    F   F   F
    0.00000000000000    -8.07644658213000   -12.11466987320000    F   F   F
    0.00000000000000    -4.03822329106000   -12.11466987320000    F   F   F
    0.00000000000000     0.00000000000000   -12.11466987320000    F   F   F
    0.00000000000000     4.03822329106000   -12.11466987320000    F   F   F
    0.00000000000000     8.07644658213000   -12.11466987320000    F   F   F
    4.03822329106000    -8.07644658213000   -12.11466987320000    F   F   F
    4.03822329106000    -4.03822329106000   -12.11466987320000    F   F   F
    4.03822329106000     0.00000000000000   -12.11466987320000    F   F   F
    4.03822329106000     4.03822329106000   -12.11466987320000    F   F   F
    4.03822329106000     8.07644658213000   -12.11466987320000    F   F   F
    8.07644658213000    -8.07644658213000   -12.11466987320000    F   F   F
    8.07644658213000    -4.03822329106000   -12.11466987320000    F   F   F
    8.07644658213000     0.00000000000000   -12.11466987320000    F   F   F
    8.07644658213000     4.03822329106000   -12.11466987320000    F   F   F
    8.07644658213000     8.07644658213000   -12.11466987320000    F   F   F
