pair_style comb3
pair_coeff * * ffield.comb3 Cu O
fix 1 all qeq/comb 1 0.001
atom_style charge
mass 1 64 2 16
