pair_style meam
pair_coeff * * library.meam W NULL W

